c turning on binary mode checking
c parsing input formula with 259840 variables and 1039919 clauses
c finished parsing, read 22581642 bytes from proof file
c detected empty clause; start verification via backward checking
c 4048 of 1039919 clauses in core                            
c 1715 of 586385 lemmas in core using 24027 resolution steps
c 0 RAT lemmas in core; 95 redundant literals in core lemmas
s VERIFIED
c verification time: 2.383 seconds
